Route #1: 6 19 31 44 58 65 66 50 45 32 20 12 1 2 7 3 8 14 22 13 21 25 26 33 40 46 34 41 35 36 24 27 23 9 4 10 15 11 16 5 17 18 30 29 28 37 42 43 49 64 57 68 69 76 81 82 93 97 92 75 63 48 47 62 56 55 61 54 53 60 52 39 38 51 59 70 71 79 72 73 74 67 80 91 96 90 95 89 88 87 100 86 85 94 99 84 78 83 77 98
Cost 45006
